presolving:
   (0.2s) running MILP presolver
   (0.2s) MILP presolver found nothing
(round 1, exhaustive) 0 del vars, 0 del conss, 0 add conss, 0 chg bounds, 0 chg sides, 0 chg coeffs, 13950 upgd conss, 0 impls, 13950 clqs
   (0.6s) probing: 51/13530 (0.4%) - 0 fixings, 0 aggregations, 0 implications, 0 bound changes
   (0.6s) probing aborted: 50/50 successive totally useless probings
   (0.6s) symmetry computation started: requiring (bin +, int -, cont +), (fixed: bin -, int +, cont -)
   (0.7s) no symmetry present
presolving (2 rounds: 2 fast, 2 medium, 2 exhaustive):
 0 deleted vars, 0 deleted constraints, 0 added constraints, 0 tightened bounds, 0 added holes, 0 changed sides, 0 changed coefficients
 0 implications, 13950 cliques
presolved problem has 13530 variables (13530 bin, 0 int, 0 impl, 0 cont) and 13950 constraints
  13950 constraints of type <setppc>
transformed objective value is always integral (scale: 1)
Presolving Time: 0.59

 time | node  | left  |LP iter|LP it/n|mem/heur|mdpt |vars |cons |rows |cuts |sepa|confs|strbr|  dualbound   | primalbound  |  gap   | compl. 
p 0.8s|     1 |     0 |     0 |     - |  clique|   0 |  13k|  13k|  13k|   0 |  0 |   0 |   0 | 0.000000e+00 | 6.371000e+03 |    Inf | unknown
  1.7s|     1 |     0 |  1705 |     - |   133M |   0 |  13k|  13k|  13k|   0 |  0 |   1 |   0 | 4.293200e+03 | 6.371000e+03 |  48.40%| unknown
r 1.8s|     1 |     0 |  1705 |     - |rounding|   0 |  13k|  13k|  13k|   0 |  0 |   1 |   0 | 4.293200e+03 | 5.414000e+03 |  26.11%| unknown
  5.0s|     1 |     0 |  1713 |     - |   137M |   0 |  13k|  13k|  13k|   2 |  1 |   1 |   0 | 4.294800e+03 | 5.414000e+03 |  26.06%| unknown
  7.6s|     1 |     0 |  1739 |     - |   139M |   0 |  13k|  13k|  13k|   6 |  2 |   1 |   0 | 4.296714e+03 | 5.414000e+03 |  26.00%| unknown
r 7.7s|     1 |     0 |  1739 |     - |rounding|   0 |  13k|  13k|  13k|   6 |  2 |   1 |   0 | 4.296714e+03 | 5.364000e+03 |  24.84%| unknown
  9.7s|     1 |     0 |  1749 |     - |   143M |   0 |  13k|  13k|  13k|   9 |  3 |   1 |   0 | 4.299200e+03 | 5.364000e+03 |  24.77%| unknown
 12.8s|     1 |     0 |  1770 |     - |   147M |   0 |  13k|  13k|  13k|  11 |  4 |   1 |   0 | 4.300786e+03 | 5.364000e+03 |  24.72%| unknown
r12.8s|     1 |     0 |  1770 |     - |rounding|   0 |  13k|  13k|  13k|  11 |  4 |   1 |   0 | 4.300786e+03 | 5.332000e+03 |  23.98%| unknown
 14.5s|     1 |     0 |  1854 |     - |   152M |   0 |  13k|  13k|  13k|  16 |  5 |   1 |   0 | 4.307250e+03 | 5.332000e+03 |  23.79%| unknown
 16.5s|     1 |     0 |  1920 |     - |   154M |   0 |  13k|  13k|  13k|  19 |  6 |   1 |   0 | 4.309533e+03 | 5.332000e+03 |  23.73%| unknown
r16.5s|     1 |     0 |  1920 |     - |rounding|   0 |  13k|  13k|  13k|  19 |  6 |   1 |   0 | 4.309533e+03 | 5.239000e+03 |  21.57%| unknown
 18.9s|     1 |     0 |  1953 |     - |   156M |   0 |  13k|  13k|  13k|  23 |  7 |   1 |   0 | 4.310274e+03 | 5.239000e+03 |  21.55%| unknown
 20.5s|     1 |     0 |  2013 |     - |   160M |   0 |  13k|  13k|  13k|  28 |  8 |   1 |   0 | 4.312534e+03 | 5.239000e+03 |  21.48%| unknown
 24.3s|     1 |     0 |  2143 |     - |   168M |   0 |  13k|  13k|  13k|  30 |  9 |   1 |   0 | 4.314700e+03 | 5.239000e+03 |  21.42%| unknown
 time | node  | left  |LP iter|LP it/n|mem/heur|mdpt |vars |cons |rows |cuts |sepa|confs|strbr|  dualbound   | primalbound  |  gap   | compl. 
 28.1s|     1 |     0 |  2190 |     - |   175M |   0 |  13k|  13k|  13k|  32 | 10 |   1 |   0 | 4.315514e+03 | 5.239000e+03 |  21.40%| unknown
 28.4s|     1 |     0 |  2231 |     - |   176M |   0 |  13k|  13k|  13k|  34 | 11 |   1 |   0 | 4.316151e+03 | 5.239000e+03 |  21.38%| unknown
 28.5s|     1 |     0 |  2260 |     - |   179M |   0 |  13k|  13k|  13k|  35 | 12 |   1 |   0 | 4.316521e+03 | 5.239000e+03 |  21.37%| unknown
 28.6s|     1 |     0 |  2293 |     - |   180M |   0 |  13k|  13k|  13k|  37 | 13 |   1 |   0 | 4.317447e+03 | 5.239000e+03 |  21.34%| unknown
 28.8s|     1 |     0 |  2335 |     - |   182M |   0 |  13k|  13k|  13k|  39 | 14 |   1 |   0 | 4.318031e+03 | 5.239000e+03 |  21.33%| unknown
 29.0s|     1 |     0 |  2370 |     - |   183M |   0 |  13k|  13k|  13k|  41 | 15 |   1 |   0 | 4.318276e+03 | 5.239000e+03 |  21.32%| unknown
 29.2s|     1 |     0 |  2471 |     - |   185M |   0 |  13k|  13k|  13k|  44 | 16 |   1 |   0 | 4.320161e+03 | 5.239000e+03 |  21.27%| unknown
 29.3s|     1 |     0 |  2488 |     - |   186M |   0 |  13k|  13k|  13k|  45 | 17 |   1 |   0 | 4.320595e+03 | 5.239000e+03 |  21.26%| unknown
 29.6s|     1 |     0 |  2507 |     - |   186M |   0 |  13k|  13k|  13k|  46 | 18 |   1 |   0 | 4.321005e+03 | 5.239000e+03 |  21.24%| unknown
 29.7s|     1 |     0 |  2536 |     - |   188M |   0 |  13k|  13k|  13k|  49 | 19 |   1 |   0 | 4.321318e+03 | 5.239000e+03 |  21.24%| unknown
 29.8s|     1 |     0 |  2570 |     - |   189M |   0 |  13k|  13k|  13k|  50 | 20 |   1 |   0 | 4.321462e+03 | 5.239000e+03 |  21.23%| unknown
d30.0s|     1 |     0 |  2828 |     - |farkasdi|   0 |  13k|  13k|  13k|   0 | 22 |   1 |   0 | 4.321462e+03 | 4.329000e+03 |   0.17%| unknown
(run 1, node 1) restarting after 9761 global fixings of integer variables

(restart) converted 45 cuts from the global cut pool into linear constraints

presolving:
(round 1, fast)       10001 del vars, 9999 del conss, 0 add conss, 0 chg bounds, 0 chg sides, 20 chg coeffs, 0 upgd conss, 0 impls, 3951 clqs
   (30.6s) running MILP presolver
   (30.6s) MILP presolver found nothing
(round 2, exhaustive) 10003 del vars, 10001 del conss, 0 add conss, 0 chg bounds, 0 chg sides, 20 chg coeffs, 45 upgd conss, 0 impls, 3949 clqs
presolving (3 rounds: 3 fast, 2 medium, 2 exhaustive):
 10003 deleted vars, 10001 deleted constraints, 0 added constraints, 0 tightened bounds, 0 added holes, 0 changed sides, 20 changed coefficients
 0 implications, 3949 cliques
presolved problem has 3527 variables (3527 bin, 0 int, 0 impl, 0 cont) and 3997 constraints
     45 constraints of type <knapsack>
   3949 constraints of type <setppc>
      3 constraints of type <logicor>
transformed objective value is always integral (scale: 1)
Presolving Time: 0.68
transformed 6/8 original solutions to the transformed problem space

 time | node  | left  |LP iter|LP it/n|mem/heur|mdpt |vars |cons |rows |cuts |sepa|confs|strbr|  dualbound   | primalbound  |  gap   | compl. 
 31.3s|     1 |     0 |  8133 |     - |   183M |   0 |3527 |3997 |3994 |   0 |  0 |9764 |   0 | 4.321462e+03 | 4.329000e+03 |   0.17%| unknown
 31.3s|     1 |     0 |  8133 |     - |   183M |   0 |3527 |3997 |2503 |   0 |  0 |9764 |   0 | 4.321462e+03 | 4.329000e+03 |   0.17%| unknown
 31.4s|     1 |     0 |  8199 |     - |   184M |   0 |3527 |2506 |2298 |   3 |  1 |9764 |   0 | 4.322036e+03 | 4.329000e+03 |   0.16%| unknown
 31.4s|     1 |     0 |  8199 |     - |   184M |   0 |3527 |2506 |2193 |   3 |  1 |9764 |   0 | 4.322036e+03 | 4.329000e+03 |   0.16%| unknown
 31.6s|     1 |     0 |  8251 |     - |   184M |   0 |3527 |2192 |2192 |   4 |  2 |9764 |   0 | 4.322353e+03 | 4.329000e+03 |   0.15%| unknown
 31.6s|     1 |     0 |  8251 |     - |   184M |   0 |3527 |2192 |2190 |   4 |  2 |9764 |   0 | 4.322353e+03 | 4.329000e+03 |   0.15%| unknown
 31.8s|     1 |     0 |  8304 |     - |   186M |   0 |3527 |2188 |2191 |   5 |  3 |9764 |   0 | 4.322916e+03 | 4.329000e+03 |   0.14%| unknown
 31.8s|     1 |     0 |  8304 |     - |   186M |   0 |3527 |2188 |2187 |   5 |  3 |9764 |   0 | 4.322916e+03 | 4.329000e+03 |   0.14%| unknown
 32.0s|     1 |     0 |  8340 |     - |   186M |   0 |3527 |2184 |2188 |   6 |  4 |9764 |   0 | 4.323268e+03 | 4.329000e+03 |   0.13%| unknown
 32.0s|     1 |     0 |  8340 |     - |   186M |   0 |3527 |2184 |2081 |   6 |  4 |9764 |   0 | 4.323268e+03 | 4.329000e+03 |   0.13%| unknown
 32.2s|     1 |     0 |  8396 |     - |   188M |   0 |3527 |2077 |2083 |   8 |  5 |9764 |   0 | 4.323364e+03 | 4.329000e+03 |   0.13%| unknown
 32.2s|     1 |     0 |  8396 |     - |   188M |   0 |3527 |2077 |2082 |   8 |  5 |9764 |   0 | 4.323364e+03 | 4.329000e+03 |   0.13%| unknown
 32.5s|     1 |     0 |  8473 |     - |   190M |   0 |3527 |2076 |2085 |  11 |  6 |9764 |   0 | 4.323750e+03 | 4.329000e+03 |   0.12%| unknown
 32.5s|     1 |     0 |  8473 |     - |   190M |   0 |3527 |2076 |2082 |  11 |  6 |9764 |   0 | 4.323750e+03 | 4.329000e+03 |   0.12%| unknown
 32.7s|     1 |     0 |  8601 |     - |   191M |   0 |3527 |2073 |2084 |  13 |  7 |9764 |   0 | 4.324169e+03 | 4.329000e+03 |   0.11%| unknown
 time | node  | left  |LP iter|LP it/n|mem/heur|mdpt |vars |cons |rows |cuts |sepa|confs|strbr|  dualbound   | primalbound  |  gap   | compl. 
 32.7s|     1 |     0 |  8601 |     - |   191M |   0 |3527 |2073 |1984 |  13 |  7 |9764 |   0 | 4.324169e+03 | 4.329000e+03 |   0.11%| unknown
 32.9s|     1 |     0 |  8647 |     - |   193M |   0 |3527 |1973 |1985 |  14 |  8 |9764 |   0 | 4.324333e+03 | 4.329000e+03 |   0.11%| unknown
 32.9s|     1 |     0 |  8647 |     - |   193M |   0 |3527 |1973 |1984 |  14 |  8 |9764 |   0 | 4.324333e+03 | 4.329000e+03 |   0.11%| unknown
 33.1s|     1 |     0 |  8806 |     - |   195M |   0 |3527 |1972 |1985 |  15 |  9 |9764 |   0 | 4.324550e+03 | 4.329000e+03 |   0.10%| unknown
 33.4s|     1 |     0 |  8887 |     - |   196M |   0 |3527 |1972 |1980 |  16 | 10 |9764 |   0 | 4.324684e+03 | 4.329000e+03 |   0.10%| unknown
 33.4s|     1 |     0 |  8960 |     - |   197M |   0 |3527 |1972 |1983 |  19 | 11 |9764 |   0 | 4.325020e+03 | 4.329000e+03 |   0.09%| unknown
 33.5s|     1 |     0 |  8960 |     - |   197M |   0 |3527 |1972 |1882 |  19 | 11 |9764 |   0 | 4.325020e+03 | 4.329000e+03 |   0.09%| unknown
 33.6s|     1 |     0 |  9031 |     - |   197M |   0 |3527 |1871 |1886 |  23 | 12 |9764 |   0 | 4.325169e+03 | 4.329000e+03 |   0.09%| unknown
 33.6s|     1 |     0 |  9031 |     - |   197M |   0 |3527 |1871 |1885 |  23 | 12 |9764 |   0 | 4.325169e+03 | 4.329000e+03 |   0.09%| unknown
 33.6s|     1 |     0 |  9186 |     - |   197M |   0 |3527 |1870 |1889 |  27 | 13 |9764 |   0 | 4.325855e+03 | 4.329000e+03 |   0.07%| unknown
 33.7s|     1 |     0 |  9186 |     - |   197M |   0 |3527 |1870 |1876 |  27 | 13 |9764 |   0 | 4.325855e+03 | 4.329000e+03 |   0.07%| unknown
 33.7s|     1 |     0 |  9241 |     - |   197M |   0 |3527 |1857 |1880 |  31 | 14 |9764 |   0 | 4.326100e+03 | 4.329000e+03 |   0.07%| unknown
 33.7s|     1 |     0 |  9241 |     - |   197M |   0 |3527 |1857 |1786 |  31 | 14 |9764 |   0 | 4.326100e+03 | 4.329000e+03 |   0.07%| unknown
 33.8s|     1 |     0 |  9271 |     - |   198M |   0 |3527 |1763 |1788 |  33 | 15 |9764 |   0 | 4.326314e+03 | 4.329000e+03 |   0.06%| unknown
 33.8s|     1 |     0 |  9271 |     - |   198M |   0 |3527 |1763 |1781 |  33 | 15 |9764 |   0 | 4.326314e+03 | 4.329000e+03 |   0.06%| unknown
 time | node  | left  |LP iter|LP it/n|mem/heur|mdpt |vars |cons |rows |cuts |sepa|confs|strbr|  dualbound   | primalbound  |  gap   | compl. 
 33.9s|     1 |     0 |  9323 |     - |   198M |   0 |3527 |1756 |1780 |  34 | 16 |9764 |   0 | 4.326368e+03 | 4.329000e+03 |   0.06%| unknown
 34.0s|     1 |     0 |  9345 |     - |   198M |   0 |3527 |1756 |1782 |  36 | 17 |9764 |   0 | 4.326435e+03 | 4.329000e+03 |   0.06%| unknown
 34.0s|     1 |     0 |  9345 |     - |   198M |   0 |3527 |1756 |1781 |  36 | 17 |9764 |   0 | 4.326435e+03 | 4.329000e+03 |   0.06%| unknown
 34.1s|     1 |     0 |  9395 |     - |   198M |   0 |3527 |1755 |1783 |  38 | 18 |9764 |   0 | 4.326575e+03 | 4.329000e+03 |   0.06%| unknown
 34.1s|     1 |     0 |  9395 |     - |   198M |   0 |3527 |1755 |1781 |  38 | 18 |9764 |   0 | 4.326575e+03 | 4.329000e+03 |   0.06%| unknown
 34.1s|     1 |     0 |  9425 |     - |   198M |   0 |3527 |1753 |1782 |  39 | 19 |9764 |   0 | 4.326675e+03 | 4.329000e+03 |   0.05%| unknown
 34.2s|     1 |     0 |  9425 |     - |   198M |   0 |3527 |1753 |1779 |  39 | 19 |9764 |   0 | 4.326675e+03 | 4.329000e+03 |   0.05%| unknown
 34.2s|     1 |     0 |  9478 |     - |   198M |   0 |3527 |1750 |1782 |  42 | 20 |9764 |   0 | 4.326880e+03 | 4.329000e+03 |   0.05%| unknown
 34.2s|     1 |     0 |  9478 |     - |   198M |   0 |3527 |1750 |1777 |  42 | 20 |9764 |   0 | 4.326880e+03 | 4.329000e+03 |   0.05%| unknown
 34.3s|     1 |     0 |  9493 |     - |   198M |   0 |3527 |1745 |1778 |  43 | 21 |9764 |   0 | 4.326912e+03 | 4.329000e+03 |   0.05%| unknown
 34.3s|     1 |     0 |  9493 |     - |   198M |   0 |3527 |1745 |1777 |  43 | 21 |9764 |   0 | 4.326912e+03 | 4.329000e+03 |   0.05%| unknown
 34.4s|     1 |     0 |  9639 |     - |   198M |   0 |3527 |1658 |1777 |  43 | 23 |9768 |   0 | 4.329000e+03 | 4.329000e+03 |   0.00%| unknown

SCIP Status        : problem is solved [optimal solution found]
Solving Time (sec) : 34.39
Solving Nodes      : 1 (total of 2 nodes in 2 runs)
Primal Bound       : +4.32900000000000e+03 (8 solutions)
Dual Bound         : +4.32900000000000e+03
Gap                : 0.00 %
Solve Status: optimal
Solve Time: 34.40 seconds
